N = 7;
M = 7;

% Matriz de la cuadrícula
initial_values = array2d(1..N, 1..M, [
  1, 1, 1, 1, 1, 1, 1,
  1, 0, 0, 1, 1, 0, 0,
  1, 0, 0, 1, 0, 0, 0,
  1, 1, 0, 0, 0, 1, 1,
  1, 1, 1, 0, 0, 0, 0,
  1, 0, 0, 0, 1, 0, 0,
  1, 0, 0, 1, 1, 0, 0
]);

% Número de grupos de suma en filas
row_groups_count = 10;

row_groups = array2d(1..row_groups_count, 1..4, [
  % [fila, columna inicial, columna final, suma objetivo]
  2, 2, 3, 3,
  2, 6, 7, 17,
  3, 2, 3, 12,
  3, 5, 7, 24,
  4, 3, 5, 6,
  5, 4, 7, 11,
  6, 2, 4, 17,
  6, 6, 7, 3,
  7, 2, 3, 17,
  7, 6, 7, 4
]);

% Número de grupos de suma en columnas
col_groups_count = 10;

col_groups = array2d(1..col_groups_count, 1..4, [
  % [columna, fila inicial, fila final, suma objetivo]
  2, 2, 3, 4,
  2, 6, 7, 16,
  3, 2, 4, 12,
  3, 6, 7, 9,
  4, 4, 6, 14,
  5, 3, 5, 12,
  6, 2, 3, 16,
  6, 5, 7, 8,
  7, 2, 3, 17,
  7, 5, 7, 6
]);
